100 67343

 199 250
784 74
910 664
371 596
752 416
897 423
847 786
183 196
957 821
377 649
340 419
63 459
487 257
110 753
249 513
317 321
809 597
876 996
303 436
859 921
858 346
765 55
147 205
691 419
946 220
683 1
332 916
501 844
646 743
511 168
120 121
313 68
803 725
862 929
138 431
953 120
329 513
663 349
752 375
812 622
946 719
313 111
859 36
132 995
706 233
742 54
678 190
253 39
874 392
169 803
54 342
718 445
476 676
850 509
384 862
169 867
837 10
549 779
190 461
721 989
512 484
605 987
461 755
829 249
830 539
710 993
106 858
839 98
672 707
698 346
363 7
880 404
726 235
113 819
408 338
887 828
48 1
962 308
680 242
632 234
271 69
249 188
943 556
299 292
776 418
394 377
140 876
11 906
545 493
976 331
370 107
358 954
345 61
521 298
441 299
880 321
506 165
508 784
139 123
983 635
